benchmark_instances/dzn_benchmark_instances/benchmark_instance_5-3.dzn
% Input: sequence of points
seq_points = [|1,1
              |1,2
              |2,2
              |5,0
              |5,1
              |2,5
              |0,5
              |0,0
             |];

num_points = 8;
